Route #1: 30 85 11 79
Route #2: 3 77 63
Route #3: 82 60 59
Route #4: 18 10 39
Route #5: 7 2 45 43 29 36 72 57
Route #6: 86 9 92
Route #7: 66 84 90 68
Route #8: 31 46 35
Route #9: 100 61 23
Route #10: 32 33 53 73 95 24
Route #11: 58 12 5
Route #12: 54 70 1
Route #13: 83 51 81
Route #14: 87 37 6 49 14
Route #15: 50 91 52
Route #16: 80 94 56 21
Route #17: 28 42 78 65 25
Route #18: 75 93
Route #19: 89 98 99 62 71
Route #20: 40 67 88 44
Route #21: 69 16 55 76
Route #22: 27 97 19
Route #23: 8 17
Route #24: 74 13 4
Route #25: 20 41 22 15
Route #26: 34 64 96 48 26 47 38
Cost 27591.0000
Time 16.0004